problems/csplib-prob056/sonet-models/noch/O0/minion/model_4_1-s2ring14-solution000001.eprime-solution
language ESSENCE' 1.0

letting network_ExplicitWithFlagsR4_Flags be [1, 1, 1, 1, 1, 1; int(1..6)]
letting network_ExplicitWithFlagsR4_Values_ExplicitVarSizeWithFlags_Flags be
        [[false, false, false, false, false; int(1..5)], [true, false, false, false, false; int(1..5)],
         [true, false, false, false, false; int(1..5)], [true, true, true, true, true; int(1..5)],
         [true, true, true, true, true; int(1..5)], [true, true, true, true, true; int(1..5)]; int(1..6)]
letting network_ExplicitWithFlagsR4_Values_ExplicitVarSizeWithFlags_Values be
        [[1, 1, 1, 1, 1; int(1..5)], [1, 1, 1, 1, 1; int(1..5)], [2, 1, 1, 1, 1; int(1..5)], [1, 2, 3, 6, 8; int(1..5)],
         [1, 3, 7, 9, 10; int(1..5)], [4, 5, 6, 7, 9; int(1..5)]; int(1..6)]
