problems/csplib-prob056/sonet-models/noch/O0/minion/model_4_1-s2ring14-solution000001.solution
language Essence 1.3

letting network be mset({}, {1}, {1, 2, 3, 6, 8}, {1, 3, 7, 9, 10}, {2}, {4, 5, 6, 7, 9})
$ Here is a simple "visualisation" for the value above.
$ 
$  1
$  1  2  3  6  8
$  1  3  7  9 10
$  2
$  4  5  6  7  9

